unsat
(:max-memory         17.96
 :memory             17.96
 :nlsat-conflicts    1
 :nlsat-propagations 5
 :nlsat-stages       1
 :num-allocs         18608
 :rlimit-count       1289
 :time               0.00
 :total-time         0.01)
